n_machines = 5;
n_resources = 10;
n_jobs = 23;
horizon = 1213;
LB = 276;
n_jobs_per_resource = [4, 1, 2, 2, 1, 4, 2, 1, 3, 3];
duration = [81, 48, 91, 56, 51, 34, 69, 37, 20, 74, 35, 55, 62, 40, 37, 46, 64, 89, 25, 20, 81, 76, 22]